p cnf 610 2072
c p weight 244 -1 0
c p weight -244 1 0
c p weight 246 6.12323399573676603586882014729198302312846062338790031898128063403419218957424163818359375E-17 0
c p weight -246 1 0
c p weight 247 1 0
c p weight -247 1 0
c p weight 248 -1 0
c p weight -248 1 0
c p weight 250 -1 0
c p weight -250 1 0
c p weight 253 -1 0
c p weight -253 1 0
c p weight 256 -1 0
c p weight -256 1 0
c p weight 259 -1 0
c p weight -259 1 0
c p weight 262 -1 0
c p weight -262 1 0
c p weight 265 -1 0
c p weight -265 1 0
c p weight 268 -1 0
c p weight -268 1 0
c p weight 271 -1 0
c p weight -271 1 0
c p weight 274 -1 0
c p weight -274 1 0
c p weight 277 -1 0
c p weight -277 1 0
c p weight 280 -1 0
c p weight -280 1 0
c p weight 283 -1 0
c p weight -283 1 0
c p weight 286 -1 0
c p weight -286 1 0
c p weight 289 -1 0
c p weight -289 1 0
c p weight 292 -1 0
c p weight -292 1 0
c p weight 295 -1 0
c p weight -295 1 0
c p weight 298 -1 0
c p weight -298 1 0
c p weight 301 -1 0
c p weight -301 1 0
c p weight 304 -1 0
c p weight -304 1 0
c p weight 307 -1 0
c p weight -307 1 0
c p weight 310 -1 0
c p weight -310 1 0
c p weight 313 -1 0
c p weight -313 1 0
c p weight 316 -1 0
c p weight -316 1 0
c p weight 319 -1 0
c p weight -319 1 0
c p weight 322 -1 0
c p weight -322 1 0
c p weight 325 -1 0
c p weight -325 1 0
c p weight 328 -1 0
c p weight -328 1 0
c p weight 331 -1 0
c p weight -331 1 0
c p weight 334 -1 0
c p weight -334 1 0
c p weight 337 -1 0
c p weight -337 1 0
c p weight 340 -1 0
c p weight -340 1 0
c p weight 343 -1 0
c p weight -343 1 0
c p weight 346 -1 0
c p weight -346 1 0
c p weight 349 -1 0
c p weight -349 1 0
c p weight 352 -1 0
c p weight -352 1 0
c p weight 355 -1 0
c p weight -355 1 0
c p weight 358 -1 0
c p weight -358 1 0
c p weight 361 -1 0
c p weight -361 1 0
c p weight 364 -1 0
c p weight -364 1 0
c p weight 367 -1 0
c p weight -367 1 0
c p weight 370 -1 0
c p weight -370 1 0
c p weight 373 -1 0
c p weight -373 1 0
c p weight 376 -1 0
c p weight -376 1 0
c p weight 379 -1 0
c p weight -379 1 0
c p weight 382 -1 0
c p weight -382 1 0
c p weight 385 -1 0
c p weight -385 1 0
c p weight 388 -1 0
c p weight -388 1 0
c p weight 391 -1 0
c p weight -391 1 0
c p weight 394 -1 0
c p weight -394 1 0
c p weight 397 -1 0
c p weight -397 1 0
c p weight 400 -1 0
c p weight -400 1 0
c p weight 403 -1 0
c p weight -403 1 0
c p weight 406 -1 0
c p weight -406 1 0
c p weight 409 -1 0
c p weight -409 1 0
c p weight 412 -1 0
c p weight -412 1 0
c p weight 415 -1 0
c p weight -415 1 0
c p weight 418 -1 0
c p weight -418 1 0
c p weight 421 -1 0
c p weight -421 1 0
c p weight 424 -1 0
c p weight -424 1 0
c p weight 427 -1 0
c p weight -427 1 0
c p weight 430 -1 0
c p weight -430 1 0
c p weight 433 -1 0
c p weight -433 1 0
c p weight 436 -1 0
c p weight -436 1 0
c p weight 439 -1 0
c p weight -439 1 0
c p weight 442 -1 0
c p weight -442 1 0
c p weight 445 -1 0
c p weight -445 1 0
c p weight 448 -1 0
c p weight -448 1 0
c p weight 451 -1 0
c p weight -451 1 0
c p weight 454 -1 0
c p weight -454 1 0
c p weight 457 -1 0
c p weight -457 1 0
c p weight 460 -1 0
c p weight -460 1 0
c p weight 463 -1 0
c p weight -463 1 0
c p weight 466 -1 0
c p weight -466 1 0
c p weight 469 -1 0
c p weight -469 1 0
c p weight 472 -1 0
c p weight -472 1 0
c p weight 475 -1 0
c p weight -475 1 0
c p weight 478 -1 0
c p weight -478 1 0
c p weight 481 -1 0
c p weight -481 1 0
c p weight 484 -1 0
c p weight -484 1 0
c p weight 487 -1 0
c p weight -487 1 0
c p weight 490 -1 0
c p weight -490 1 0
c p weight 493 -1 0
c p weight -493 1 0
c p weight 496 -1 0
c p weight -496 1 0
c p weight 499 -1 0
c p weight -499 1 0
c p weight 502 -1 0
c p weight -502 1 0
c p weight 505 -1 0
c p weight -505 1 0
c p weight 508 -1 0
c p weight -508 1 0
c p weight 511 -1 0
c p weight -511 1 0
c p weight 514 -1 0
c p weight -514 1 0
c p weight 517 -1 0
c p weight -517 1 0
c p weight 520 -1 0
c p weight -520 1 0
c p weight 523 -1 0
c p weight -523 1 0
c p weight 526 -1 0
c p weight -526 1 0
c p weight 529 -1 0
c p weight -529 1 0
c p weight 532 -1 0
c p weight -532 1 0
c p weight 535 -1 0
c p weight -535 1 0
c p weight 538 -1 0
c p weight -538 1 0
c p weight 541 -1 0
c p weight -541 1 0
c p weight 544 -1 0
c p weight -544 1 0
c p weight 547 -1 0
c p weight -547 1 0
c p weight 550 -1 0
c p weight -550 1 0
c p weight 553 -1 0
c p weight -553 1 0
c p weight 556 -1 0
c p weight -556 1 0
c p weight 559 -1 0
c p weight -559 1 0
c p weight 562 -1 0
c p weight -562 1 0
c p weight 565 -1 0
c p weight -565 1 0
c p weight 568 -1 0
c p weight -568 1 0
c p weight 571 -1 0
c p weight -571 1 0
c p weight 574 -1 0
c p weight -574 1 0
c p weight 577 -1 0
c p weight -577 1 0
c p weight 580 -1 0
c p weight -580 1 0
c p weight 583 -1 0
c p weight -583 1 0
c p weight 586 -1 0
c p weight -586 1 0
c p weight 589 -1 0
c p weight -589 1 0
c p weight 592 -1 0
c p weight -592 1 0
c p weight 595 -1 0
c p weight -595 1 0
c p weight 598 -1 0
c p weight -598 1 0
c p weight 601 -1 0
c p weight -601 1 0
c p weight 604 -1 0
c p weight -604 1 0
c p weight 607 -1 0
c p weight -607 1 0
c p weight 610 -1 0
c p weight -610 1 0
-241 0
-239 0
-237 0
-235 0
-233 0
-231 0
-229 0
-227 0
-225 0
-223 0
-221 0
-219 0
-217 0
-215 0
-213 0
-211 0
-209 0
-207 0
-205 0
-203 0
-201 0
-199 0
-197 0
-195 0
-193 0
-191 0
-189 0
-187 0
-185 0
-183 0
-181 0
-179 0
-177 0
-175 0
-173 0
-171 0
-169 0
-167 0
-165 0
-163 0
-161 0
-159 0
-157 0
-155 0
-153 0
-151 0
-149 0
-147 0
-145 0
-143 0
-141 0
-139 0
-137 0
-135 0
-133 0
-131 0
-129 0
-127 0
-125 0
-123 0
-121 0
-119 0
-117 0
-115 0
-113 0
-111 0
-109 0
-107 0
-105 0
-103 0
-101 0
-99 0
-97 0
-95 0
-93 0
-91 0
-89 0
-87 0
-85 0
-83 0
-81 0
-79 0
-77 0
-75 0
-73 0
-71 0
-69 0
-67 0
-65 0
-63 0
-61 0
-59 0
-57 0
-55 0
-53 0
-51 0
-49 0
-47 0
-45 0
-43 0
-41 0
-39 0
-37 0
-35 0
-33 0
-31 0
-29 0
-27 0
-25 0
-23 0
-21 0
-19 0
-17 0
-15 0
-13 0
-11 0
-9 0
-7 0
-5 0
-3 0
-1 0
243 241 -242 0
243 -241 242 0
-243 241 242 0
-243 -241 -242 0
-244 241 0
-244 242 0
244 -241 -242 0
245 -241 243 0
-245 241 243 0
-246 243 0
245 -246 -241 0
-245 -246 241 0
245 246 241 -243 0
-245 246 -241 -243 0
-247 243 0
245 -247 241 0
-245 -247 -241 0
245 247 -241 -243 0
-245 247 241 -243 0
-248 245 0
-248 243 0
-248 -241 0
248 -245 241 -243 0
249 245 -243 0
249 -245 243 0
-249 245 243 0
-249 -245 -243 0
-250 245 0
-250 243 0
250 -245 -243 0
251 245 -239 0
251 -245 239 0
-251 245 239 0
-251 -245 -239 0
252 249 -240 0
252 -249 240 0
-252 249 240 0
-252 -249 -240 0
-253 245 0
-253 240 0
-253 239 -249 0
-253 -239 249 0
253 -245 239 249 -240 0
253 -245 -239 -249 -240 0
254 251 -237 0
254 -251 237 0
-254 251 237 0
-254 -251 -237 0
255 240 -238 0
255 -240 238 0
-255 240 238 0
-255 -240 -238 0
-256 251 0
-256 238 0
-256 237 -240 0
-256 -237 240 0
256 -251 237 240 -238 0
256 -251 -237 -240 -238 0
257 254 -235 0
257 -254 235 0
-257 254 235 0
-257 -254 -235 0
258 238 -236 0
258 -238 236 0
-258 238 236 0
-258 -238 -236 0
-259 254 0
-259 236 0
-259 235 -238 0
-259 -235 238 0
259 -254 235 238 -236 0
259 -254 -235 -238 -236 0
260 257 -233 0
260 -257 233 0
-260 257 233 0
-260 -257 -233 0
261 236 -234 0
261 -236 234 0
-261 236 234 0
-261 -236 -234 0
-262 257 0
-262 234 0
-262 233 -236 0
-262 -233 236 0
262 -257 233 236 -234 0
262 -257 -233 -236 -234 0
263 260 -231 0
263 -260 231 0
-263 260 231 0
-263 -260 -231 0
264 234 -232 0
264 -234 232 0
-264 234 232 0
-264 -234 -232 0
-265 260 0
-265 232 0
-265 231 -234 0
-265 -231 234 0
265 -260 231 234 -232 0
265 -260 -231 -234 -232 0
266 263 -229 0
266 -263 229 0
-266 263 229 0
-266 -263 -229 0
267 232 -230 0
267 -232 230 0
-267 232 230 0
-267 -232 -230 0
-268 263 0
-268 230 0
-268 229 -232 0
-268 -229 232 0
268 -263 229 232 -230 0
268 -263 -229 -232 -230 0
269 266 -227 0
269 -266 227 0
-269 266 227 0
-269 -266 -227 0
270 230 -228 0
270 -230 228 0
-270 230 228 0
-270 -230 -228 0
-271 266 0
-271 228 0
-271 227 -230 0
-271 -227 230 0
271 -266 227 230 -228 0
271 -266 -227 -230 -228 0
272 269 -225 0
272 -269 225 0
-272 269 225 0
-272 -269 -225 0
273 228 -226 0
273 -228 226 0
-273 228 226 0
-273 -228 -226 0
-274 269 0
-274 226 0
-274 225 -228 0
-274 -225 228 0
274 -269 225 228 -226 0
274 -269 -225 -228 -226 0
275 272 -223 0
275 -272 223 0
-275 272 223 0
-275 -272 -223 0
276 226 -224 0
276 -226 224 0
-276 226 224 0
-276 -226 -224 0
-277 272 0
-277 224 0
-277 223 -226 0
-277 -223 226 0
277 -272 223 226 -224 0
277 -272 -223 -226 -224 0
278 275 -221 0
278 -275 221 0
-278 275 221 0
-278 -275 -221 0
279 224 -222 0
279 -224 222 0
-279 224 222 0
-279 -224 -222 0
-280 275 0
-280 222 0
-280 221 -224 0
-280 -221 224 0
280 -275 221 224 -222 0
280 -275 -221 -224 -222 0
281 278 -219 0
281 -278 219 0
-281 278 219 0
-281 -278 -219 0
282 222 -220 0
282 -222 220 0
-282 222 220 0
-282 -222 -220 0
-283 278 0
-283 220 0
-283 219 -222 0
-283 -219 222 0
283 -278 219 222 -220 0
283 -278 -219 -222 -220 0
284 281 -217 0
284 -281 217 0
-284 281 217 0
-284 -281 -217 0
285 220 -218 0
285 -220 218 0
-285 220 218 0
-285 -220 -218 0
-286 281 0
-286 218 0
-286 217 -220 0
-286 -217 220 0
286 -281 217 220 -218 0
286 -281 -217 -220 -218 0
287 284 -215 0
287 -284 215 0
-287 284 215 0
-287 -284 -215 0
288 218 -216 0
288 -218 216 0
-288 218 216 0
-288 -218 -216 0
-289 284 0
-289 216 0
-289 215 -218 0
-289 -215 218 0
289 -284 215 218 -216 0
289 -284 -215 -218 -216 0
290 287 -213 0
290 -287 213 0
-290 287 213 0
-290 -287 -213 0
291 216 -214 0
291 -216 214 0
-291 216 214 0
-291 -216 -214 0
-292 287 0
-292 214 0
-292 213 -216 0
-292 -213 216 0
292 -287 213 216 -214 0
292 -287 -213 -216 -214 0
293 290 -211 0
293 -290 211 0
-293 290 211 0
-293 -290 -211 0
294 214 -212 0
294 -214 212 0
-294 214 212 0
-294 -214 -212 0
-295 290 0
-295 212 0
-295 211 -214 0
-295 -211 214 0
295 -290 211 214 -212 0
295 -290 -211 -214 -212 0
296 293 -209 0
296 -293 209 0
-296 293 209 0
-296 -293 -209 0
297 212 -210 0
297 -212 210 0
-297 212 210 0
-297 -212 -210 0
-298 293 0
-298 210 0
-298 209 -212 0
-298 -209 212 0
298 -293 209 212 -210 0
298 -293 -209 -212 -210 0
299 296 -207 0
299 -296 207 0
-299 296 207 0
-299 -296 -207 0
300 210 -208 0
300 -210 208 0
-300 210 208 0
-300 -210 -208 0
-301 296 0
-301 208 0
-301 207 -210 0
-301 -207 210 0
301 -296 207 210 -208 0
301 -296 -207 -210 -208 0
302 299 -205 0
302 -299 205 0
-302 299 205 0
-302 -299 -205 0
303 208 -206 0
303 -208 206 0
-303 208 206 0
-303 -208 -206 0
-304 299 0
-304 206 0
-304 205 -208 0
-304 -205 208 0
304 -299 205 208 -206 0
304 -299 -205 -208 -206 0
305 302 -203 0
305 -302 203 0
-305 302 203 0
-305 -302 -203 0
306 206 -204 0
306 -206 204 0
-306 206 204 0
-306 -206 -204 0
-307 302 0
-307 204 0
-307 203 -206 0
-307 -203 206 0
307 -302 203 206 -204 0
307 -302 -203 -206 -204 0
308 305 -201 0
308 -305 201 0
-308 305 201 0
-308 -305 -201 0
309 204 -202 0
309 -204 202 0
-309 204 202 0
-309 -204 -202 0
-310 305 0
-310 202 0
-310 201 -204 0
-310 -201 204 0
310 -305 201 204 -202 0
310 -305 -201 -204 -202 0
311 308 -199 0
311 -308 199 0
-311 308 199 0
-311 -308 -199 0
312 202 -200 0
312 -202 200 0
-312 202 200 0
-312 -202 -200 0
-313 308 0
-313 200 0
-313 199 -202 0
-313 -199 202 0
313 -308 199 202 -200 0
313 -308 -199 -202 -200 0
314 311 -197 0
314 -311 197 0
-314 311 197 0
-314 -311 -197 0
315 200 -198 0
315 -200 198 0
-315 200 198 0
-315 -200 -198 0
-316 311 0
-316 198 0
-316 197 -200 0
-316 -197 200 0
316 -311 197 200 -198 0
316 -311 -197 -200 -198 0
317 314 -195 0
317 -314 195 0
-317 314 195 0
-317 -314 -195 0
318 198 -196 0
318 -198 196 0
-318 198 196 0
-318 -198 -196 0
-319 314 0
-319 196 0
-319 195 -198 0
-319 -195 198 0
319 -314 195 198 -196 0
319 -314 -195 -198 -196 0
320 317 -193 0
320 -317 193 0
-320 317 193 0
-320 -317 -193 0
321 196 -194 0
321 -196 194 0
-321 196 194 0
-321 -196 -194 0
-322 317 0
-322 194 0
-322 193 -196 0
-322 -193 196 0
322 -317 193 196 -194 0
322 -317 -193 -196 -194 0
323 320 -191 0
323 -320 191 0
-323 320 191 0
-323 -320 -191 0
324 194 -192 0
324 -194 192 0
-324 194 192 0
-324 -194 -192 0
-325 320 0
-325 192 0
-325 191 -194 0
-325 -191 194 0
325 -320 191 194 -192 0
325 -320 -191 -194 -192 0
326 323 -189 0
326 -323 189 0
-326 323 189 0
-326 -323 -189 0
327 192 -190 0
327 -192 190 0
-327 192 190 0
-327 -192 -190 0
-328 323 0
-328 190 0
-328 189 -192 0
-328 -189 192 0
328 -323 189 192 -190 0
328 -323 -189 -192 -190 0
329 326 -187 0
329 -326 187 0
-329 326 187 0
-329 -326 -187 0
330 190 -188 0
330 -190 188 0
-330 190 188 0
-330 -190 -188 0
-331 326 0
-331 188 0
-331 187 -190 0
-331 -187 190 0
331 -326 187 190 -188 0
331 -326 -187 -190 -188 0
332 329 -185 0
332 -329 185 0
-332 329 185 0
-332 -329 -185 0
333 188 -186 0
333 -188 186 0
-333 188 186 0
-333 -188 -186 0
-334 329 0
-334 186 0
-334 185 -188 0
-334 -185 188 0
334 -329 185 188 -186 0
334 -329 -185 -188 -186 0
335 332 -183 0
335 -332 183 0
-335 332 183 0
-335 -332 -183 0
336 186 -184 0
336 -186 184 0
-336 186 184 0
-336 -186 -184 0
-337 332 0
-337 184 0
-337 183 -186 0
-337 -183 186 0
337 -332 183 186 -184 0
337 -332 -183 -186 -184 0
338 335 -181 0
338 -335 181 0
-338 335 181 0
-338 -335 -181 0
339 184 -182 0
339 -184 182 0
-339 184 182 0
-339 -184 -182 0
-340 335 0
-340 182 0
-340 181 -184 0
-340 -181 184 0
340 -335 181 184 -182 0
340 -335 -181 -184 -182 0
341 338 -179 0
341 -338 179 0
-341 338 179 0
-341 -338 -179 0
342 182 -180 0
342 -182 180 0
-342 182 180 0
-342 -182 -180 0
-343 338 0
-343 180 0
-343 179 -182 0
-343 -179 182 0
343 -338 179 182 -180 0
343 -338 -179 -182 -180 0
344 341 -177 0
344 -341 177 0
-344 341 177 0
-344 -341 -177 0
345 180 -178 0
345 -180 178 0
-345 180 178 0
-345 -180 -178 0
-346 341 0
-346 178 0
-346 177 -180 0
-346 -177 180 0
346 -341 177 180 -178 0
346 -341 -177 -180 -178 0
347 344 -175 0
347 -344 175 0
-347 344 175 0
-347 -344 -175 0
348 178 -176 0
348 -178 176 0
-348 178 176 0
-348 -178 -176 0
-349 344 0
-349 176 0
-349 175 -178 0
-349 -175 178 0
349 -344 175 178 -176 0
349 -344 -175 -178 -176 0
350 347 -173 0
350 -347 173 0
-350 347 173 0
-350 -347 -173 0
351 176 -174 0
351 -176 174 0
-351 176 174 0
-351 -176 -174 0
-352 347 0
-352 174 0
-352 173 -176 0
-352 -173 176 0
352 -347 173 176 -174 0
352 -347 -173 -176 -174 0
353 350 -171 0
353 -350 171 0
-353 350 171 0
-353 -350 -171 0
354 174 -172 0
354 -174 172 0
-354 174 172 0
-354 -174 -172 0
-355 350 0
-355 172 0
-355 171 -174 0
-355 -171 174 0
355 -350 171 174 -172 0
355 -350 -171 -174 -172 0
356 353 -169 0
356 -353 169 0
-356 353 169 0
-356 -353 -169 0
357 172 -170 0
357 -172 170 0
-357 172 170 0
-357 -172 -170 0
-358 353 0
-358 170 0
-358 169 -172 0
-358 -169 172 0
358 -353 169 172 -170 0
358 -353 -169 -172 -170 0
359 356 -167 0
359 -356 167 0
-359 356 167 0
-359 -356 -167 0
360 170 -168 0
360 -170 168 0
-360 170 168 0
-360 -170 -168 0
-361 356 0
-361 168 0
-361 167 -170 0
-361 -167 170 0
361 -356 167 170 -168 0
361 -356 -167 -170 -168 0
362 359 -165 0
362 -359 165 0
-362 359 165 0
-362 -359 -165 0
363 168 -166 0
363 -168 166 0
-363 168 166 0
-363 -168 -166 0
-364 359 0
-364 166 0
-364 165 -168 0
-364 -165 168 0
364 -359 165 168 -166 0
364 -359 -165 -168 -166 0
365 362 -163 0
365 -362 163 0
-365 362 163 0
-365 -362 -163 0
366 166 -164 0
366 -166 164 0
-366 166 164 0
-366 -166 -164 0
-367 362 0
-367 164 0
-367 163 -166 0
-367 -163 166 0
367 -362 163 166 -164 0
367 -362 -163 -166 -164 0
368 365 -161 0
368 -365 161 0
-368 365 161 0
-368 -365 -161 0
369 164 -162 0
369 -164 162 0
-369 164 162 0
-369 -164 -162 0
-370 365 0
-370 162 0
-370 161 -164 0
-370 -161 164 0
370 -365 161 164 -162 0
370 -365 -161 -164 -162 0
371 368 -159 0
371 -368 159 0
-371 368 159 0
-371 -368 -159 0
372 162 -160 0
372 -162 160 0
-372 162 160 0
-372 -162 -160 0
-373 368 0
-373 160 0
-373 159 -162 0
-373 -159 162 0
373 -368 159 162 -160 0
373 -368 -159 -162 -160 0
374 371 -157 0
374 -371 157 0
-374 371 157 0
-374 -371 -157 0
375 160 -158 0
375 -160 158 0
-375 160 158 0
-375 -160 -158 0
-376 371 0
-376 158 0
-376 157 -160 0
-376 -157 160 0
376 -371 157 160 -158 0
376 -371 -157 -160 -158 0
377 374 -155 0
377 -374 155 0
-377 374 155 0
-377 -374 -155 0
378 158 -156 0
378 -158 156 0
-378 158 156 0
-378 -158 -156 0
-379 374 0
-379 156 0
-379 155 -158 0
-379 -155 158 0
379 -374 155 158 -156 0
379 -374 -155 -158 -156 0
380 377 -153 0
380 -377 153 0
-380 377 153 0
-380 -377 -153 0
381 156 -154 0
381 -156 154 0
-381 156 154 0
-381 -156 -154 0
-382 377 0
-382 154 0
-382 153 -156 0
-382 -153 156 0
382 -377 153 156 -154 0
382 -377 -153 -156 -154 0
383 380 -151 0
383 -380 151 0
-383 380 151 0
-383 -380 -151 0
384 154 -152 0
384 -154 152 0
-384 154 152 0
-384 -154 -152 0
-385 380 0
-385 152 0
-385 151 -154 0
-385 -151 154 0
385 -380 151 154 -152 0
385 -380 -151 -154 -152 0
386 383 -149 0
386 -383 149 0
-386 383 149 0
-386 -383 -149 0
387 152 -150 0
387 -152 150 0
-387 152 150 0
-387 -152 -150 0
-388 383 0
-388 150 0
-388 149 -152 0
-388 -149 152 0
388 -383 149 152 -150 0
388 -383 -149 -152 -150 0
389 386 -147 0
389 -386 147 0
-389 386 147 0
-389 -386 -147 0
390 150 -148 0
390 -150 148 0
-390 150 148 0
-390 -150 -148 0
-391 386 0
-391 148 0
-391 147 -150 0
-391 -147 150 0
391 -386 147 150 -148 0
391 -386 -147 -150 -148 0
392 389 -145 0
392 -389 145 0
-392 389 145 0
-392 -389 -145 0
393 148 -146 0
393 -148 146 0
-393 148 146 0
-393 -148 -146 0
-394 389 0
-394 146 0
-394 145 -148 0
-394 -145 148 0
394 -389 145 148 -146 0
394 -389 -145 -148 -146 0
395 392 -143 0
395 -392 143 0
-395 392 143 0
-395 -392 -143 0
396 146 -144 0
396 -146 144 0
-396 146 144 0
-396 -146 -144 0
-397 392 0
-397 144 0
-397 143 -146 0
-397 -143 146 0
397 -392 143 146 -144 0
397 -392 -143 -146 -144 0
398 395 -141 0
398 -395 141 0
-398 395 141 0
-398 -395 -141 0
399 144 -142 0
399 -144 142 0
-399 144 142 0
-399 -144 -142 0
-400 395 0
-400 142 0
-400 141 -144 0
-400 -141 144 0
400 -395 141 144 -142 0
400 -395 -141 -144 -142 0
401 398 -139 0
401 -398 139 0
-401 398 139 0
-401 -398 -139 0
402 142 -140 0
402 -142 140 0
-402 142 140 0
-402 -142 -140 0
-403 398 0
-403 140 0
-403 139 -142 0
-403 -139 142 0
403 -398 139 142 -140 0
403 -398 -139 -142 -140 0
404 401 -137 0
404 -401 137 0
-404 401 137 0
-404 -401 -137 0
405 140 -138 0
405 -140 138 0
-405 140 138 0
-405 -140 -138 0
-406 401 0
-406 138 0
-406 137 -140 0
-406 -137 140 0
406 -401 137 140 -138 0
406 -401 -137 -140 -138 0
407 404 -135 0
407 -404 135 0
-407 404 135 0
-407 -404 -135 0
408 138 -136 0
408 -138 136 0
-408 138 136 0
-408 -138 -136 0
-409 404 0
-409 136 0
-409 135 -138 0
-409 -135 138 0
409 -404 135 138 -136 0
409 -404 -135 -138 -136 0
410 407 -133 0
410 -407 133 0
-410 407 133 0
-410 -407 -133 0
411 136 -134 0
411 -136 134 0
-411 136 134 0
-411 -136 -134 0
-412 407 0
-412 134 0
-412 133 -136 0
-412 -133 136 0
412 -407 133 136 -134 0
412 -407 -133 -136 -134 0
413 410 -131 0
413 -410 131 0
-413 410 131 0
-413 -410 -131 0
414 134 -132 0
414 -134 132 0
-414 134 132 0
-414 -134 -132 0
-415 410 0
-415 132 0
-415 131 -134 0
-415 -131 134 0
415 -410 131 134 -132 0
415 -410 -131 -134 -132 0
416 413 -129 0
416 -413 129 0
-416 413 129 0
-416 -413 -129 0
417 132 -130 0
417 -132 130 0
-417 132 130 0
-417 -132 -130 0
-418 413 0
-418 130 0
-418 129 -132 0
-418 -129 132 0
418 -413 129 132 -130 0
418 -413 -129 -132 -130 0
419 416 -127 0
419 -416 127 0
-419 416 127 0
-419 -416 -127 0
420 130 -128 0
420 -130 128 0
-420 130 128 0
-420 -130 -128 0
-421 416 0
-421 128 0
-421 127 -130 0
-421 -127 130 0
421 -416 127 130 -128 0
421 -416 -127 -130 -128 0
422 419 -125 0
422 -419 125 0
-422 419 125 0
-422 -419 -125 0
423 128 -126 0
423 -128 126 0
-423 128 126 0
-423 -128 -126 0
-424 419 0
-424 126 0
-424 125 -128 0
-424 -125 128 0
424 -419 125 128 -126 0
424 -419 -125 -128 -126 0
425 422 -123 0
425 -422 123 0
-425 422 123 0
-425 -422 -123 0
426 126 -124 0
426 -126 124 0
-426 126 124 0
-426 -126 -124 0
-427 422 0
-427 124 0
-427 123 -126 0
-427 -123 126 0
427 -422 123 126 -124 0
427 -422 -123 -126 -124 0
428 425 -121 0
428 -425 121 0
-428 425 121 0
-428 -425 -121 0
429 124 -122 0
429 -124 122 0
-429 124 122 0
-429 -124 -122 0
-430 425 0
-430 122 0
-430 121 -124 0
-430 -121 124 0
430 -425 121 124 -122 0
430 -425 -121 -124 -122 0
431 428 -119 0
431 -428 119 0
-431 428 119 0
-431 -428 -119 0
432 122 -120 0
432 -122 120 0
-432 122 120 0
-432 -122 -120 0
-433 428 0
-433 120 0
-433 119 -122 0
-433 -119 122 0
433 -428 119 122 -120 0
433 -428 -119 -122 -120 0
434 431 -117 0
434 -431 117 0
-434 431 117 0
-434 -431 -117 0
435 120 -118 0
435 -120 118 0
-435 120 118 0
-435 -120 -118 0
-436 431 0
-436 118 0
-436 117 -120 0
-436 -117 120 0
436 -431 117 120 -118 0
436 -431 -117 -120 -118 0
437 434 -115 0
437 -434 115 0
-437 434 115 0
-437 -434 -115 0
438 118 -116 0
438 -118 116 0
-438 118 116 0
-438 -118 -116 0
-439 434 0
-439 116 0
-439 115 -118 0
-439 -115 118 0
439 -434 115 118 -116 0
439 -434 -115 -118 -116 0
440 437 -113 0
440 -437 113 0
-440 437 113 0
-440 -437 -113 0
441 116 -114 0
441 -116 114 0
-441 116 114 0
-441 -116 -114 0
-442 437 0
-442 114 0
-442 113 -116 0
-442 -113 116 0
442 -437 113 116 -114 0
442 -437 -113 -116 -114 0
443 440 -111 0
443 -440 111 0
-443 440 111 0
-443 -440 -111 0
444 114 -112 0
444 -114 112 0
-444 114 112 0
-444 -114 -112 0
-445 440 0
-445 112 0
-445 111 -114 0
-445 -111 114 0
445 -440 111 114 -112 0
445 -440 -111 -114 -112 0
446 443 -109 0
446 -443 109 0
-446 443 109 0
-446 -443 -109 0
447 112 -110 0
447 -112 110 0
-447 112 110 0
-447 -112 -110 0
-448 443 0
-448 110 0
-448 109 -112 0
-448 -109 112 0
448 -443 109 112 -110 0
448 -443 -109 -112 -110 0
449 446 -107 0
449 -446 107 0
-449 446 107 0
-449 -446 -107 0
450 110 -108 0
450 -110 108 0
-450 110 108 0
-450 -110 -108 0
-451 446 0
-451 108 0
-451 107 -110 0
-451 -107 110 0
451 -446 107 110 -108 0
451 -446 -107 -110 -108 0
452 449 -105 0
452 -449 105 0
-452 449 105 0
-452 -449 -105 0
453 108 -106 0
453 -108 106 0
-453 108 106 0
-453 -108 -106 0
-454 449 0
-454 106 0
-454 105 -108 0
-454 -105 108 0
454 -449 105 108 -106 0
454 -449 -105 -108 -106 0
455 452 -103 0
455 -452 103 0
-455 452 103 0
-455 -452 -103 0
456 106 -104 0
456 -106 104 0
-456 106 104 0
-456 -106 -104 0
-457 452 0
-457 104 0
-457 103 -106 0
-457 -103 106 0
457 -452 103 106 -104 0
457 -452 -103 -106 -104 0
458 455 -101 0
458 -455 101 0
-458 455 101 0
-458 -455 -101 0
459 104 -102 0
459 -104 102 0
-459 104 102 0
-459 -104 -102 0
-460 455 0
-460 102 0
-460 101 -104 0
-460 -101 104 0
460 -455 101 104 -102 0
460 -455 -101 -104 -102 0
461 458 -99 0
461 -458 99 0
-461 458 99 0
-461 -458 -99 0
462 102 -100 0
462 -102 100 0
-462 102 100 0
-462 -102 -100 0
-463 458 0
-463 100 0
-463 99 -102 0
-463 -99 102 0
463 -458 99 102 -100 0
463 -458 -99 -102 -100 0
464 461 -97 0
464 -461 97 0
-464 461 97 0
-464 -461 -97 0
465 100 -98 0
465 -100 98 0
-465 100 98 0
-465 -100 -98 0
-466 461 0
-466 98 0
-466 97 -100 0
-466 -97 100 0
466 -461 97 100 -98 0
466 -461 -97 -100 -98 0
467 464 -95 0
467 -464 95 0
-467 464 95 0
-467 -464 -95 0
468 98 -96 0
468 -98 96 0
-468 98 96 0
-468 -98 -96 0
-469 464 0
-469 96 0
-469 95 -98 0
-469 -95 98 0
469 -464 95 98 -96 0
469 -464 -95 -98 -96 0
470 467 -93 0
470 -467 93 0
-470 467 93 0
-470 -467 -93 0
471 96 -94 0
471 -96 94 0
-471 96 94 0
-471 -96 -94 0
-472 467 0
-472 94 0
-472 93 -96 0
-472 -93 96 0
472 -467 93 96 -94 0
472 -467 -93 -96 -94 0
473 470 -91 0
473 -470 91 0
-473 470 91 0
-473 -470 -91 0
474 94 -92 0
474 -94 92 0
-474 94 92 0
-474 -94 -92 0
-475 470 0
-475 92 0
-475 91 -94 0
-475 -91 94 0
475 -470 91 94 -92 0
475 -470 -91 -94 -92 0
476 473 -89 0
476 -473 89 0
-476 473 89 0
-476 -473 -89 0
477 92 -90 0
477 -92 90 0
-477 92 90 0
-477 -92 -90 0
-478 473 0
-478 90 0
-478 89 -92 0
-478 -89 92 0
478 -473 89 92 -90 0
478 -473 -89 -92 -90 0
479 476 -87 0
479 -476 87 0
-479 476 87 0
-479 -476 -87 0
480 90 -88 0
480 -90 88 0
-480 90 88 0
-480 -90 -88 0
-481 476 0
-481 88 0
-481 87 -90 0
-481 -87 90 0
481 -476 87 90 -88 0
481 -476 -87 -90 -88 0
482 479 -85 0
482 -479 85 0
-482 479 85 0
-482 -479 -85 0
483 88 -86 0
483 -88 86 0
-483 88 86 0
-483 -88 -86 0
-484 479 0
-484 86 0
-484 85 -88 0
-484 -85 88 0
484 -479 85 88 -86 0
484 -479 -85 -88 -86 0
485 482 -83 0
485 -482 83 0
-485 482 83 0
-485 -482 -83 0
486 86 -84 0
486 -86 84 0
-486 86 84 0
-486 -86 -84 0
-487 482 0
-487 84 0
-487 83 -86 0
-487 -83 86 0
487 -482 83 86 -84 0
487 -482 -83 -86 -84 0
488 485 -81 0
488 -485 81 0
-488 485 81 0
-488 -485 -81 0
489 84 -82 0
489 -84 82 0
-489 84 82 0
-489 -84 -82 0
-490 485 0
-490 82 0
-490 81 -84 0
-490 -81 84 0
490 -485 81 84 -82 0
490 -485 -81 -84 -82 0
491 488 -79 0
491 -488 79 0
-491 488 79 0
-491 -488 -79 0
492 82 -80 0
492 -82 80 0
-492 82 80 0
-492 -82 -80 0
-493 488 0
-493 80 0
-493 79 -82 0
-493 -79 82 0
493 -488 79 82 -80 0
493 -488 -79 -82 -80 0
494 491 -77 0
494 -491 77 0
-494 491 77 0
-494 -491 -77 0
495 80 -78 0
495 -80 78 0
-495 80 78 0
-495 -80 -78 0
-496 491 0
-496 78 0
-496 77 -80 0
-496 -77 80 0
496 -491 77 80 -78 0
496 -491 -77 -80 -78 0
497 494 -75 0
497 -494 75 0
-497 494 75 0
-497 -494 -75 0
498 78 -76 0
498 -78 76 0
-498 78 76 0
-498 -78 -76 0
-499 494 0
-499 76 0
-499 75 -78 0
-499 -75 78 0
499 -494 75 78 -76 0
499 -494 -75 -78 -76 0
500 497 -73 0
500 -497 73 0
-500 497 73 0
-500 -497 -73 0
501 76 -74 0
501 -76 74 0
-501 76 74 0
-501 -76 -74 0
-502 497 0
-502 74 0
-502 73 -76 0
-502 -73 76 0
502 -497 73 76 -74 0
502 -497 -73 -76 -74 0
503 500 -71 0
503 -500 71 0
-503 500 71 0
-503 -500 -71 0
504 74 -72 0
504 -74 72 0
-504 74 72 0
-504 -74 -72 0
-505 500 0
-505 72 0
-505 71 -74 0
-505 -71 74 0
505 -500 71 74 -72 0
505 -500 -71 -74 -72 0
506 503 -69 0
506 -503 69 0
-506 503 69 0
-506 -503 -69 0
507 72 -70 0
507 -72 70 0
-507 72 70 0
-507 -72 -70 0
-508 503 0
-508 70 0
-508 69 -72 0
-508 -69 72 0
508 -503 69 72 -70 0
508 -503 -69 -72 -70 0
509 506 -67 0
509 -506 67 0
-509 506 67 0
-509 -506 -67 0
510 70 -68 0
510 -70 68 0
-510 70 68 0
-510 -70 -68 0
-511 506 0
-511 68 0
-511 67 -70 0
-511 -67 70 0
511 -506 67 70 -68 0
511 -506 -67 -70 -68 0
512 509 -65 0
512 -509 65 0
-512 509 65 0
-512 -509 -65 0
513 68 -66 0
513 -68 66 0
-513 68 66 0
-513 -68 -66 0
-514 509 0
-514 66 0
-514 65 -68 0
-514 -65 68 0
514 -509 65 68 -66 0
514 -509 -65 -68 -66 0
515 512 -63 0
515 -512 63 0
-515 512 63 0
-515 -512 -63 0
516 66 -64 0
516 -66 64 0
-516 66 64 0
-516 -66 -64 0
-517 512 0
-517 64 0
-517 63 -66 0
-517 -63 66 0
517 -512 63 66 -64 0
517 -512 -63 -66 -64 0
518 515 -61 0
518 -515 61 0
-518 515 61 0
-518 -515 -61 0
519 64 -62 0
519 -64 62 0
-519 64 62 0
-519 -64 -62 0
-520 515 0
-520 62 0
-520 61 -64 0
-520 -61 64 0
520 -515 61 64 -62 0
520 -515 -61 -64 -62 0
521 518 -59 0
521 -518 59 0
-521 518 59 0
-521 -518 -59 0
522 62 -60 0
522 -62 60 0
-522 62 60 0
-522 -62 -60 0
-523 518 0
-523 60 0
-523 59 -62 0
-523 -59 62 0
523 -518 59 62 -60 0
523 -518 -59 -62 -60 0
524 521 -57 0
524 -521 57 0
-524 521 57 0
-524 -521 -57 0
525 60 -58 0
525 -60 58 0
-525 60 58 0
-525 -60 -58 0
-526 521 0
-526 58 0
-526 57 -60 0
-526 -57 60 0
526 -521 57 60 -58 0
526 -521 -57 -60 -58 0
527 524 -55 0
527 -524 55 0
-527 524 55 0
-527 -524 -55 0
528 58 -56 0
528 -58 56 0
-528 58 56 0
-528 -58 -56 0
-529 524 0
-529 56 0
-529 55 -58 0
-529 -55 58 0
529 -524 55 58 -56 0
529 -524 -55 -58 -56 0
530 527 -53 0
530 -527 53 0
-530 527 53 0
-530 -527 -53 0
531 56 -54 0
531 -56 54 0
-531 56 54 0
-531 -56 -54 0
-532 527 0
-532 54 0
-532 53 -56 0
-532 -53 56 0
532 -527 53 56 -54 0
532 -527 -53 -56 -54 0
533 530 -51 0
533 -530 51 0
-533 530 51 0
-533 -530 -51 0
534 54 -52 0
534 -54 52 0
-534 54 52 0
-534 -54 -52 0
-535 530 0
-535 52 0
-535 51 -54 0
-535 -51 54 0
535 -530 51 54 -52 0
535 -530 -51 -54 -52 0
536 533 -49 0
536 -533 49 0
-536 533 49 0
-536 -533 -49 0
537 52 -50 0
537 -52 50 0
-537 52 50 0
-537 -52 -50 0
-538 533 0
-538 50 0
-538 49 -52 0
-538 -49 52 0
538 -533 49 52 -50 0
538 -533 -49 -52 -50 0
539 536 -47 0
539 -536 47 0
-539 536 47 0
-539 -536 -47 0
540 50 -48 0
540 -50 48 0
-540 50 48 0
-540 -50 -48 0
-541 536 0
-541 48 0
-541 47 -50 0
-541 -47 50 0
541 -536 47 50 -48 0
541 -536 -47 -50 -48 0
542 539 -45 0
542 -539 45 0
-542 539 45 0
-542 -539 -45 0
543 48 -46 0
543 -48 46 0
-543 48 46 0
-543 -48 -46 0
-544 539 0
-544 46 0
-544 45 -48 0
-544 -45 48 0
544 -539 45 48 -46 0
544 -539 -45 -48 -46 0
545 542 -43 0
545 -542 43 0
-545 542 43 0
-545 -542 -43 0
546 46 -44 0
546 -46 44 0
-546 46 44 0
-546 -46 -44 0
-547 542 0
-547 44 0
-547 43 -46 0
-547 -43 46 0
547 -542 43 46 -44 0
547 -542 -43 -46 -44 0
548 545 -41 0
548 -545 41 0
-548 545 41 0
-548 -545 -41 0
549 44 -42 0
549 -44 42 0
-549 44 42 0
-549 -44 -42 0
-550 545 0
-550 42 0
-550 41 -44 0
-550 -41 44 0
550 -545 41 44 -42 0
550 -545 -41 -44 -42 0
551 548 -39 0
551 -548 39 0
-551 548 39 0
-551 -548 -39 0
552 42 -40 0
552 -42 40 0
-552 42 40 0
-552 -42 -40 0
-553 548 0
-553 40 0
-553 39 -42 0
-553 -39 42 0
553 -548 39 42 -40 0
553 -548 -39 -42 -40 0
554 551 -37 0
554 -551 37 0
-554 551 37 0
-554 -551 -37 0
555 40 -38 0
555 -40 38 0
-555 40 38 0
-555 -40 -38 0
-556 551 0
-556 38 0
-556 37 -40 0
-556 -37 40 0
556 -551 37 40 -38 0
556 -551 -37 -40 -38 0
557 554 -35 0
557 -554 35 0
-557 554 35 0
-557 -554 -35 0
558 38 -36 0
558 -38 36 0
-558 38 36 0
-558 -38 -36 0
-559 554 0
-559 36 0
-559 35 -38 0
-559 -35 38 0
559 -554 35 38 -36 0
559 -554 -35 -38 -36 0
560 557 -33 0
560 -557 33 0
-560 557 33 0
-560 -557 -33 0
561 36 -34 0
561 -36 34 0
-561 36 34 0
-561 -36 -34 0
-562 557 0
-562 34 0
-562 33 -36 0
-562 -33 36 0
562 -557 33 36 -34 0
562 -557 -33 -36 -34 0
563 560 -31 0
563 -560 31 0
-563 560 31 0
-563 -560 -31 0
564 34 -32 0
564 -34 32 0
-564 34 32 0
-564 -34 -32 0
-565 560 0
-565 32 0
-565 31 -34 0
-565 -31 34 0
565 -560 31 34 -32 0
565 -560 -31 -34 -32 0
566 563 -29 0
566 -563 29 0
-566 563 29 0
-566 -563 -29 0
567 32 -30 0
567 -32 30 0
-567 32 30 0
-567 -32 -30 0
-568 563 0
-568 30 0
-568 29 -32 0
-568 -29 32 0
568 -563 29 32 -30 0
568 -563 -29 -32 -30 0
569 566 -27 0
569 -566 27 0
-569 566 27 0
-569 -566 -27 0
570 30 -28 0
570 -30 28 0
-570 30 28 0
-570 -30 -28 0
-571 566 0
-571 28 0
-571 27 -30 0
-571 -27 30 0
571 -566 27 30 -28 0
571 -566 -27 -30 -28 0
572 569 -25 0
572 -569 25 0
-572 569 25 0
-572 -569 -25 0
573 28 -26 0
573 -28 26 0
-573 28 26 0
-573 -28 -26 0
-574 569 0
-574 26 0
-574 25 -28 0
-574 -25 28 0
574 -569 25 28 -26 0
574 -569 -25 -28 -26 0
575 572 -23 0
575 -572 23 0
-575 572 23 0
-575 -572 -23 0
576 26 -24 0
576 -26 24 0
-576 26 24 0
-576 -26 -24 0
-577 572 0
-577 24 0
-577 23 -26 0
-577 -23 26 0
577 -572 23 26 -24 0
577 -572 -23 -26 -24 0
578 575 -21 0
578 -575 21 0
-578 575 21 0
-578 -575 -21 0
579 24 -22 0
579 -24 22 0
-579 24 22 0
-579 -24 -22 0
-580 575 0
-580 22 0
-580 21 -24 0
-580 -21 24 0
580 -575 21 24 -22 0
580 -575 -21 -24 -22 0
581 578 -19 0
581 -578 19 0
-581 578 19 0
-581 -578 -19 0
582 22 -20 0
582 -22 20 0
-582 22 20 0
-582 -22 -20 0
-583 578 0
-583 20 0
-583 19 -22 0
-583 -19 22 0
583 -578 19 22 -20 0
583 -578 -19 -22 -20 0
584 581 -17 0
584 -581 17 0
-584 581 17 0
-584 -581 -17 0
585 20 -18 0
585 -20 18 0
-585 20 18 0
-585 -20 -18 0
-586 581 0
-586 18 0
-586 17 -20 0
-586 -17 20 0
586 -581 17 20 -18 0
586 -581 -17 -20 -18 0
587 584 -15 0
587 -584 15 0
-587 584 15 0
-587 -584 -15 0
588 18 -16 0
588 -18 16 0
-588 18 16 0
-588 -18 -16 0
-589 584 0
-589 16 0
-589 15 -18 0
-589 -15 18 0
589 -584 15 18 -16 0
589 -584 -15 -18 -16 0
590 587 -13 0
590 -587 13 0
-590 587 13 0
-590 -587 -13 0
591 16 -14 0
591 -16 14 0
-591 16 14 0
-591 -16 -14 0
-592 587 0
-592 14 0
-592 13 -16 0
-592 -13 16 0
592 -587 13 16 -14 0
592 -587 -13 -16 -14 0
593 590 -11 0
593 -590 11 0
-593 590 11 0
-593 -590 -11 0
594 14 -12 0
594 -14 12 0
-594 14 12 0
-594 -14 -12 0
-595 590 0
-595 12 0
-595 11 -14 0
-595 -11 14 0
595 -590 11 14 -12 0
595 -590 -11 -14 -12 0
596 593 -9 0
596 -593 9 0
-596 593 9 0
-596 -593 -9 0
597 12 -10 0
597 -12 10 0
-597 12 10 0
-597 -12 -10 0
-598 593 0
-598 10 0
-598 9 -12 0
-598 -9 12 0
598 -593 9 12 -10 0
598 -593 -9 -12 -10 0
599 596 -7 0
599 -596 7 0
-599 596 7 0
-599 -596 -7 0
600 10 -8 0
600 -10 8 0
-600 10 8 0
-600 -10 -8 0
-601 596 0
-601 8 0
-601 7 -10 0
-601 -7 10 0
601 -596 7 10 -8 0
601 -596 -7 -10 -8 0
602 599 -5 0
602 -599 5 0
-602 599 5 0
-602 -599 -5 0
603 8 -6 0
603 -8 6 0
-603 8 6 0
-603 -8 -6 0
-604 599 0
-604 6 0
-604 5 -8 0
-604 -5 8 0
604 -599 5 8 -6 0
604 -599 -5 -8 -6 0
605 602 -3 0
605 -602 3 0
-605 602 3 0
-605 -602 -3 0
606 6 -4 0
606 -6 4 0
-606 6 4 0
-606 -6 -4 0
-607 602 0
-607 4 0
-607 3 -6 0
-607 -3 6 0
607 -602 3 6 -4 0
607 -602 -3 -6 -4 0
608 605 -1 0
608 -605 1 0
-608 605 1 0
-608 -605 -1 0
609 4 -2 0
609 -4 2 0
-609 4 2 0
-609 -4 -2 0
-610 605 0
-610 2 0
-610 1 -4 0
-610 -1 4 0
610 -605 1 4 -2 0
610 -605 -1 -4 -2 0
-608 0
-605 0
-609 0
-602 0
-606 0
-599 0
-603 0
-596 0
-600 0
-593 0
-597 0
-590 0
-594 0
-587 0
-591 0
-584 0
-588 0
-581 0
-585 0
-578 0
-582 0
-575 0
-579 0
-572 0
-576 0
-569 0
-573 0
-566 0
-570 0
-563 0
-567 0
-560 0
-564 0
-557 0
-561 0
-554 0
-558 0
-551 0
-555 0
-548 0
-552 0
-545 0
-549 0
-542 0
-546 0
-539 0
-543 0
-536 0
-540 0
-533 0
-537 0
-530 0
-534 0
-527 0
-531 0
-524 0
-528 0
-521 0
-525 0
-518 0
-522 0
-515 0
-519 0
-512 0
-516 0
-509 0
-513 0
-506 0
-510 0
-503 0
-507 0
-500 0
-504 0
-497 0
-501 0
-494 0
-498 0
-491 0
-495 0
-488 0
-492 0
-485 0
-489 0
-482 0
-486 0
-479 0
-483 0
-476 0
-480 0
-473 0
-477 0
-470 0
-474 0
-467 0
-471 0
-464 0
-468 0
-461 0
-465 0
-458 0
-462 0
-455 0
-459 0
-452 0
-456 0
-449 0
-453 0
-446 0
-450 0
-443 0
-447 0
-440 0
-444 0
-437 0
-441 0
-434 0
-438 0
-431 0
-435 0
-428 0
-432 0
-425 0
-429 0
-422 0
-426 0
-419 0
-423 0
-416 0
-420 0
-413 0
-417 0
-410 0
-414 0
-407 0
-411 0
-404 0
-408 0
-401 0
-405 0
-398 0
-402 0
-395 0
-399 0
-392 0
-396 0
-389 0
-393 0
-386 0
-390 0
-383 0
-387 0
-380 0
-384 0
-377 0
-381 0
-374 0
-378 0
-371 0
-375 0
-368 0
-372 0
-365 0
-369 0
-362 0
-366 0
-359 0
-363 0
-356 0
-360 0
-353 0
-357 0
-350 0
-354 0
-347 0
-351 0
-344 0
-348 0
-341 0
-345 0
-338 0
-342 0
-335 0
-339 0
-332 0
-336 0
-329 0
-333 0
-326 0
-330 0
-323 0
-327 0
-320 0
-324 0
-317 0
-321 0
-314 0
-318 0
-311 0
-315 0
-308 0
-312 0
-305 0
-309 0
-302 0
-306 0
-299 0
-303 0
-296 0
-300 0
-293 0
-297 0
-290 0
-294 0
-287 0
-291 0
-284 0
-288 0
-281 0
-285 0
-278 0
-282 0
-275 0
-279 0
-272 0
-276 0
-269 0
-273 0
-266 0
-270 0
-263 0
-267 0
-260 0
-264 0
-257 0
-261 0
-254 0
-258 0
-251 0
-255 0
-245 0
-252 0
